;; translated from ./ctigar/up-nested.c.vmt
;; original benchmark available at: https://es-static.fbk.eu/people/griggio/ic3ia/index.html
;; author: Alberto Griggio <griggio@fbk.eu>
(set-logic HORN)
(declare-fun state (Bool Bool Bool Bool Int Int Int Int) Bool)
(assert (forall ((|.s.0| Bool) (|.s.2| Bool) (|.s.1| Bool) (|.s.0.next| Bool) (|.s.1.next| Bool) (|.s.2.next| Bool) (|.s.3.next| Bool) (|main.i.next| Int) (|main.i| Int) (|main.j.next| Int) (|main.j| Int) (|main.k.next| Int) (|main.k| Int) (|main.n.next| Int) (|main.n| Int) (|.s.3| Bool)) (=> (let ((.def_17 (not .s.3)))
(let ((.def_14 (not .s.2)))
(let ((.def_10 (not .s.1)))
(let ((.def_12 (and .def_10 .s.0)))
(let ((.def_15 (and .def_12 .def_14)))
(let ((.def_18 (and .def_15 .def_17)))
.def_18)))))) (state |.s.1| |.s.0| |.s.2| |.s.3| |main.i| |main.j| |main.k| |main.n|))))
(assert (forall ((|.s.0| Bool) (|.s.2| Bool) (|.s.1| Bool) (|.s.0.next| Bool) (|.s.1.next| Bool) (|.s.2.next| Bool) (|.s.3.next| Bool) (|main.i.next| Int) (|main.i| Int) (|main.j.next| Int) (|main.j| Int) (|main.k.next| Int) (|main.k| Int) (|main.n.next| Int) (|main.n| Int) (|.s.3| Bool)) (=> (and (state |.s.1| |.s.0| |.s.2| |.s.3| |main.i| |main.j| |main.k| |main.n|) (let ((.def_48 (not .s.0)))
(let ((.def_10 (not .s.1)))
(let ((.def_74 (and .def_10 .def_48)))
(let ((.def_14 (not .s.2)))
(let ((.def_75 (and .def_14 .def_74)))
(let ((.def_17 (not .s.3)))
(let ((.def_177 (and .def_17 .def_75)))
(let ((.def_178 (not .def_177)))
(let ((.def_55 (not .s.0.next)))
(let ((.def_54 (not .s.1.next)))
(let ((.def_56 (and .def_54 .def_55)))
(let ((.def_27 (not .s.2.next)))
(let ((.def_57 (and .def_27 .def_56)))
(let ((.def_53 (not .s.3.next)))
(let ((.def_58 (and .def_53 .def_57)))
(let ((.def_33 (= main.i main.i.next)))
(let ((.def_59 (and .def_33 .def_58)))
(let ((.def_37 (= main.j main.j.next)))
(let ((.def_60 (and .def_37 .def_59)))
(let ((.def_41 (= main.k main.k.next)))
(let ((.def_61 (and .def_41 .def_60)))
(let ((.def_45 (= main.n main.n.next)))
(let ((.def_62 (and .def_45 .def_61)))
(let ((.def_179 (or .def_62 .def_178)))
(let ((.def_66 (and .s.1.next .def_55)))
(let ((.def_67 (and .def_27 .def_66)))
(let ((.def_171 (and .def_53 .def_67)))
(let ((.def_170 (= main.i.next 0)))
(let ((.def_172 (and .def_170 .def_171)))
(let ((.def_173 (and .def_37 .def_172)))
(let ((.def_174 (and .def_41 .def_173)))
(let ((.def_175 (and .def_45 .def_174)))
(let ((.def_12 (and .def_10 .s.0)))
(let ((.def_15 (and .def_12 .def_14)))
(let ((.def_18 (and .def_15 .def_17)))
(let ((.def_169 (not .def_18)))
(let ((.def_176 (or .def_169 .def_175)))
(let ((.def_180 (and .def_176 .def_179)))
(let ((.def_25 (and .s.0.next .s.1.next)))
(let ((.def_28 (and .def_25 .def_27)))
(let ((.def_163 (and .def_28 .def_53)))
(let ((.def_162 (= main.k.next 0)))
(let ((.def_164 (and .def_162 .def_163)))
(let ((.def_165 (and .def_33 .def_164)))
(let ((.def_166 (and .def_37 .def_165)))
(let ((.def_167 (and .def_45 .def_166)))
(let ((.def_49 (and .s.1 .def_48)))
(let ((.def_50 (and .def_14 .def_49)))
(let ((.def_160 (and .def_17 .def_50)))
(let ((.def_161 (not .def_160)))
(let ((.def_168 (or .def_161 .def_167)))
(let ((.def_181 (and .def_168 .def_180)))
(let ((.def_19 (and .s.1 .s.0)))
(let ((.def_20 (and .def_14 .def_19)))
(let ((.def_153 (and .def_17 .def_20)))
(let ((.def_134 (<= main.j main.n)))
(let ((.def_157 (and .def_134 .def_153)))
(let ((.def_158 (not .def_157)))
(let ((.def_96 (and .s.2.next .def_56)))
(let ((.def_97 (and .def_53 .def_96)))
(let ((.def_98 (and .def_33 .def_97)))
(let ((.def_99 (and .def_37 .def_98)))
(let ((.def_100 (and .def_41 .def_99)))
(let ((.def_101 (and .def_45 .def_100)))
(let ((.def_159 (or .def_101 .def_158)))
(let ((.def_182 (and .def_159 .def_181)))
(let ((.def_135 (not .def_134)))
(let ((.def_154 (and .def_135 .def_153)))
(let ((.def_155 (not .def_154)))
(let ((.def_156 (or .def_62 .def_155)))
(let ((.def_183 (and .def_156 .def_182)))
(let ((.def_81 (and .s.0.next .def_54)))
(let ((.def_146 (and .s.2.next .def_81)))
(let ((.def_147 (and .def_53 .def_146)))
(let ((.def_148 (and .def_33 .def_147)))
(let ((.def_149 (and .def_37 .def_148)))
(let ((.def_150 (and .def_41 .def_149)))
(let ((.def_151 (and .def_45 .def_150)))
(let ((.def_132 (and .s.2 .def_74)))
(let ((.def_133 (and .def_17 .def_132)))
(let ((.def_144 (and .def_133 .def_134)))
(let ((.def_145 (not .def_144)))
(let ((.def_152 (or .def_145 .def_151)))
(let ((.def_184 (and .def_152 .def_183)))
(let ((.def_138 (and .s.3.next .def_57)))
(let ((.def_139 (and .def_33 .def_138)))
(let ((.def_140 (and .def_37 .def_139)))
(let ((.def_141 (and .def_41 .def_140)))
(let ((.def_142 (and .def_45 .def_141)))
(let ((.def_136 (and .def_133 .def_135)))
(let ((.def_137 (not .def_136)))
(let ((.def_143 (or .def_137 .def_142)))
(let ((.def_185 (and .def_143 .def_184)))
(let ((.def_118 (and .def_12 .s.2)))
(let ((.def_119 (and .def_17 .def_118)))
(let ((.def_78 (<= 0 main.i)))
(let ((.def_89 (not .def_78)))
(let ((.def_129 (and .def_89 .def_119)))
(let ((.def_130 (not .def_129)))
(let ((.def_131 (or .def_62 .def_130)))
(let ((.def_186 (and .def_131 .def_185)))
(let ((.def_122 (and .s.2.next .def_66)))
(let ((.def_123 (and .def_53 .def_122)))
(let ((.def_124 (and .def_33 .def_123)))
(let ((.def_125 (and .def_37 .def_124)))
(let ((.def_126 (and .def_41 .def_125)))
(let ((.def_127 (and .def_45 .def_126)))
(let ((.def_120 (and .def_78 .def_119)))
(let ((.def_121 (not .def_120)))
(let ((.def_128 (or .def_121 .def_127)))
(let ((.def_187 (and .def_128 .def_186)))
(let ((.def_111 (and .def_25 .s.2.next)))
(let ((.def_112 (and .def_53 .def_111)))
(let ((.def_108 (* (- 1) main.j.next)))
(let ((.def_109 (+ main.j .def_108)))
(let ((.def_110 (= .def_109 (- 1))))
(let ((.def_113 (and .def_110 .def_112)))
(let ((.def_114 (and .def_33 .def_113)))
(let ((.def_115 (and .def_41 .def_114)))
(let ((.def_116 (and .def_45 .def_115)))
(let ((.def_103 (and .s.2 .def_49)))
(let ((.def_104 (and .def_17 .def_103)))
(let ((.def_105 (not .def_104)))
(let ((.def_117 (or .def_105 .def_116)))
(let ((.def_188 (and .def_117 .def_187)))
(let ((.def_93 (and .s.2 .def_19)))
(let ((.def_94 (and .def_17 .def_93)))
(let ((.def_95 (not .def_94)))
(let ((.def_102 (or .def_95 .def_101)))
(let ((.def_189 (and .def_102 .def_188)))
(let ((.def_76 (and .s.3 .def_75)))
(let ((.def_90 (and .def_76 .def_89)))
(let ((.def_91 (not .def_90)))
(let ((.def_30 (and .def_28 .s.3.next)))
(let ((.def_34 (and .def_30 .def_33)))
(let ((.def_38 (and .def_34 .def_37)))
(let ((.def_42 (and .def_38 .def_41)))
(let ((.def_46 (and .def_42 .def_45)))
(let ((.def_92 (or .def_46 .def_91)))
(let ((.def_190 (and .def_92 .def_189)))
(let ((.def_82 (and .def_27 .def_81)))
(let ((.def_83 (and .s.3.next .def_82)))
(let ((.def_84 (and .def_33 .def_83)))
(let ((.def_85 (and .def_37 .def_84)))
(let ((.def_86 (and .def_41 .def_85)))
(let ((.def_87 (and .def_45 .def_86)))
(let ((.def_79 (and .def_76 .def_78)))
(let ((.def_80 (not .def_79)))
(let ((.def_88 (or .def_80 .def_87)))
(let ((.def_191 (and .def_88 .def_190)))
(let ((.def_68 (and .s.3.next .def_67)))
(let ((.def_69 (and .def_33 .def_68)))
(let ((.def_70 (and .def_37 .def_69)))
(let ((.def_71 (and .def_41 .def_70)))
(let ((.def_72 (and .def_45 .def_71)))
(let ((.def_64 (and .def_15 .s.3)))
(let ((.def_65 (not .def_64)))
(let ((.def_73 (or .def_65 .def_72)))
(let ((.def_192 (and .def_73 .def_191)))
(let ((.def_51 (and .s.3 .def_50)))
(let ((.def_52 (not .def_51)))
(let ((.def_63 (or .def_52 .def_62)))
(let ((.def_193 (and .def_63 .def_192)))
(let ((.def_21 (and .s.3 .def_20)))
(let ((.def_22 (not .def_21)))
(let ((.def_47 (or .def_22 .def_46)))
(let ((.def_194 (and .def_47 .def_193)))
.def_194)))))))))))))))))))))))))))))))))))))))))))))))))))))))))))))))))))))))))))))))))))))))))))))))))))))))))))))))))))))))))))))))))))))))))))))))))))))))))))))))))))))))) (state |.s.1.next| |.s.0.next| |.s.2.next| |.s.3.next| |main.i.next| |main.j.next| |main.k.next| |main.n.next|))))
(assert (forall ((|.s.0| Bool) (|.s.2| Bool) (|.s.1| Bool) (|.s.0.next| Bool) (|.s.1.next| Bool) (|.s.2.next| Bool) (|.s.3.next| Bool) (|main.i.next| Int) (|main.i| Int) (|main.j.next| Int) (|main.j| Int) (|main.k.next| Int) (|main.k| Int) (|main.n.next| Int) (|main.n| Int) (|.s.3| Bool)) (=> (state |.s.1| |.s.0| |.s.2| |.s.3| |main.i| |main.j| |main.k| |main.n|) (let ((.def_19 (and .s.1 .s.0)))
(let ((.def_14 (not .s.2)))
(let ((.def_20 (and .def_14 .def_19)))
(let ((.def_21 (and .s.3 .def_20)))
(let ((.def_22 (not .def_21)))
.def_22))))))))
(check-sat)
